c FILE /home/rafael/Documents/HappySet/MIHS/inputs/happygen/output/graph_scale_free_k5_p0.2_v50_20241127_082442.txt
c SOURCE This is a scale-free graph formed for the happy graph colouring problem.
c DESCRIPTION It was generated using the problem generator of Rhyd Lewis
c
c GRAPH STATS
c Seed                             = 208003225
c Number of Nodes                  = 50
c Number of colours k              = 5
c Number of pre-assignments        = 10
c Number of links per new node     = 5
c Density                          = 0.191837
c 
c The degrees of nodes 1 to 50, respectively, are as follows 
c [23, 23, 22, 21, 20, 19, 16, 15, 15, 15, 15, 12, 12, 10, 10, 9, 9, 9, 9, 9, 8, 8, 8, 8, 7, 7, 
c  7, 7, 6, 6, 6, 6, 6, 6, 6, 5, 5, 5, 5, 5, 5, 5, 5, 5, 5, 5, 5, 5, 5, 5] 
c  
p edge 50 235 5
e 1 2
e 1 3
e 1 4
e 1 5
e 1 7
e 1 8
e 1 9
e 1 11
e 1 12
e 1 16
e 1 19
e 1 22
e 1 24
e 1 26
e 1 27
e 1 29
e 1 30
e 1 35
e 1 38
e 1 41
e 1 45
e 1 48
e 1 50
e 2 3
e 2 4
e 2 5
e 2 6
e 2 7
e 2 8
e 2 11
e 2 13
e 2 14
e 2 15
e 2 17
e 2 18
e 2 21
e 2 22
e 2 25
e 2 28
e 2 29
e 2 37
e 2 38
e 2 43
e 2 47
e 2 50
e 3 4
e 3 5
e 3 6
e 3 7
e 3 8
e 3 9
e 3 11
e 3 12
e 3 15
e 3 16
e 3 22
e 3 24
e 3 25
e 3 29
e 3 31
e 3 33
e 3 35
e 3 42
e 3 45
e 3 47
e 4 5
e 4 7
e 4 8
e 4 9
e 4 10
e 4 11
e 4 12
e 4 19
e 4 20
e 4 21
e 4 26
e 4 30
e 4 31
e 4 36
e 4 39
e 4 41
e 4 42
e 4 48
e 5 7
e 5 8
e 5 9
e 5 10
e 5 12
e 5 13
e 5 14
e 5 15
e 5 17
e 5 21
e 5 23
e 5 24
e 5 25
e 5 29
e 5 32
e 5 34
e 6 10
e 6 12
e 6 13
e 6 14
e 6 15
e 6 17
e 6 20
e 6 21
e 6 31
e 6 34
e 6 37
e 6 38
e 6 39
e 6 40
e 6 43
e 6 45
e 6 46
e 7 10
e 7 16
e 7 18
e 7 20
e 7 23
e 7 29
e 7 30
e 7 37
e 7 38
e 7 40
e 7 41
e 8 9
e 8 10
e 8 11
e 8 12
e 8 18
e 8 23
e 8 26
e 8 33
e 8 36
e 8 43
e 9 13
e 9 18
e 9 19
e 9 20
e 9 21
e 9 22
e 9 26
e 9 30
e 9 38
e 9 49
e 10 12
e 10 15
e 10 21
e 10 25
e 10 28
e 10 30
e 10 36
e 10 41
e 10 42
e 10 44
e 11 13
e 11 14
e 11 24
e 11 27
e 11 28
e 11 33
e 11 37
e 11 44
e 11 48
e 11 49
e 12 20
e 12 25
e 12 26
e 12 27
e 12 49
e 13 22
e 13 27
e 13 28
e 13 31
e 13 33
e 13 35
e 13 47
e 14 16
e 14 21
e 14 27
e 14 31
e 14 32
e 14 49
e 15 18
e 15 19
e 15 32
e 15 36
e 15 48
e 16 22
e 16 23
e 16 34
e 16 39
e 16 44
e 17 25
e 17 27
e 17 28
e 17 34
e 17 40
e 17 50
e 18 24
e 18 34
e 18 43
e 18 47
e 19 23
e 19 36
e 19 40
e 19 44
e 19 48
e 20 40
e 20 41
e 20 46
e 20 47
e 21 49
e 22 23
e 22 39
e 23 37
e 23 46
e 24 39
e 24 46
e 24 50
e 25 32
e 26 32
e 26 45
e 27 50
e 28 42
e 28 43
e 29 33
e 30 44
e 31 42
e 32 45
e 33 35
e 34 35
e 35 46
n 15 2
n 20 1
n 26 2
n 28 3
n 32 2
n 34 5
n 39 4
n 41 1
n 48 2
n 50 1
